\ LP format - for model browsing. Use MPS format to capture full model detail.
Minimize
  5355 0_>_1 + 3060 0_>_2 + 765 0_>_3 + 2295 0_>_4 + 4590 0_>_5 + 6120 0_>_6
   + 765 0_>_7 + 3825 0_>_8 + 1530 0_>_9 + 5355 1_>_0 + 2295 1_>_2
   + 4590 1_>_3 + 3060 1_>_4 + 765 1_>_5 + 765 1_>_6 + 6120 1_>_7
   + 1530 1_>_8 + 3825 1_>_9 + 3060 2_>_0 + 2295 2_>_1 + 2295 2_>_3
   + 765 2_>_4 + 1530 2_>_5 + 3060 2_>_6 + 3825 2_>_7 + 765 2_>_8
   + 1530 2_>_9 + 765 3_>_0 + 4590 3_>_1 + 2295 3_>_2 + 1530 3_>_4
   + 3825 3_>_5 + 5355 3_>_6 + 1530 3_>_7 + 3060 3_>_8 + 765 3_>_9
   + 2295 4_>_0 + 3060 4_>_1 + 765 4_>_2 + 1530 4_>_3 + 2295 4_>_5
   + 3825 4_>_6 + 3060 4_>_7 + 1530 4_>_8 + 765 4_>_9 + 4590 5_>_0
   + 765 5_>_1 + 1530 5_>_2 + 3825 5_>_3 + 2295 5_>_4 + 1530 5_>_6
   + 5355 5_>_7 + 765 5_>_8 + 3060 5_>_9 + 6120 6_>_0 + 765 6_>_1
   + 3060 6_>_2 + 5355 6_>_3 + 3825 6_>_4 + 1530 6_>_5 + 6885 6_>_7
   + 2295 6_>_8 + 4590 6_>_9 + 765 7_>_0 + 6120 7_>_1 + 3825 7_>_2
   + 1530 7_>_3 + 3060 7_>_4 + 5355 7_>_5 + 6885 7_>_6 + 4590 7_>_8
   + 2295 7_>_9 + 3825 8_>_0 + 1530 8_>_1 + 765 8_>_2 + 3060 8_>_3
   + 1530 8_>_4 + 765 8_>_5 + 2295 8_>_6 + 4590 8_>_7 + 2295 8_>_9
   + 1530 9_>_0 + 3825 9_>_1 + 1530 9_>_2 + 765 9_>_3 + 765 9_>_4
   + 3060 9_>_5 + 4590 9_>_6 + 2295 9_>_7 + 2295 9_>_8
Subject To
 R0: 1_>_0 + 2_>_0 + 3_>_0 + 4_>_0 + 5_>_0 + 6_>_0 + 7_>_0 + 8_>_0 + 9_>_0
   + 10_>_0 <= 1
 R1: 1_>_0 + 2_>_0 + 3_>_0 + 4_>_0 + 5_>_0 + 6_>_0 + 7_>_0 + 8_>_0 + 9_>_0
   + 10_>_0 >= 1
 R2: 0_>_1 + 0_>_2 + 0_>_3 + 0_>_4 + 0_>_5 + 0_>_6 + 0_>_7 + 0_>_8 + 0_>_9
   + 0_>_10 <= 1
 R3: 0_>_1 + 0_>_2 + 0_>_3 + 0_>_4 + 0_>_5 + 0_>_6 + 0_>_7 + 0_>_8 + 0_>_9
   + 0_>_10 >= 1
 R4: 0_>_1 + 2_>_1 + 3_>_1 + 4_>_1 + 5_>_1 + 6_>_1 + 7_>_1 + 8_>_1 + 9_>_1
   + 10_>_1 <= 1
 R5: 0_>_1 + 2_>_1 + 3_>_1 + 4_>_1 + 5_>_1 + 6_>_1 + 7_>_1 + 8_>_1 + 9_>_1
   + 10_>_1 >= 1
 R6: 1_>_0 + 1_>_2 + 1_>_3 + 1_>_4 + 1_>_5 + 1_>_6 + 1_>_7 + 1_>_8 + 1_>_9
   + 1_>_10 <= 1
 R7: 1_>_0 + 1_>_2 + 1_>_3 + 1_>_4 + 1_>_5 + 1_>_6 + 1_>_7 + 1_>_8 + 1_>_9
   + 1_>_10 >= 1
 R8: 0_>_2 + 1_>_2 + 3_>_2 + 4_>_2 + 5_>_2 + 6_>_2 + 7_>_2 + 8_>_2 + 9_>_2
   + 10_>_2 <= 1
 R9: 0_>_2 + 1_>_2 + 3_>_2 + 4_>_2 + 5_>_2 + 6_>_2 + 7_>_2 + 8_>_2 + 9_>_2
   + 10_>_2 >= 1
 R10: 2_>_0 + 2_>_1 + 2_>_3 + 2_>_4 + 2_>_5 + 2_>_6 + 2_>_7 + 2_>_8 + 2_>_9
   + 2_>_10 <= 1
 R11: 2_>_0 + 2_>_1 + 2_>_3 + 2_>_4 + 2_>_5 + 2_>_6 + 2_>_7 + 2_>_8 + 2_>_9
   + 2_>_10 >= 1
 R12: 0_>_3 + 1_>_3 + 2_>_3 + 4_>_3 + 5_>_3 + 6_>_3 + 7_>_3 + 8_>_3 + 9_>_3
   + 10_>_3 <= 1
 R13: 0_>_3 + 1_>_3 + 2_>_3 + 4_>_3 + 5_>_3 + 6_>_3 + 7_>_3 + 8_>_3 + 9_>_3
   + 10_>_3 >= 1
 R14: 3_>_0 + 3_>_1 + 3_>_2 + 3_>_4 + 3_>_5 + 3_>_6 + 3_>_7 + 3_>_8 + 3_>_9
   + 3_>_10 <= 1
 R15: 3_>_0 + 3_>_1 + 3_>_2 + 3_>_4 + 3_>_5 + 3_>_6 + 3_>_7 + 3_>_8 + 3_>_9
   + 3_>_10 >= 1
 R16: 0_>_4 + 1_>_4 + 2_>_4 + 3_>_4 + 5_>_4 + 6_>_4 + 7_>_4 + 8_>_4 + 9_>_4
   + 10_>_4 <= 1
 R17: 0_>_4 + 1_>_4 + 2_>_4 + 3_>_4 + 5_>_4 + 6_>_4 + 7_>_4 + 8_>_4 + 9_>_4
   + 10_>_4 >= 1
 R18: 4_>_0 + 4_>_1 + 4_>_2 + 4_>_3 + 4_>_5 + 4_>_6 + 4_>_7 + 4_>_8 + 4_>_9
   + 4_>_10 <= 1
 R19: 4_>_0 + 4_>_1 + 4_>_2 + 4_>_3 + 4_>_5 + 4_>_6 + 4_>_7 + 4_>_8 + 4_>_9
   + 4_>_10 >= 1
 R20: 0_>_5 + 1_>_5 + 2_>_5 + 3_>_5 + 4_>_5 + 6_>_5 + 7_>_5 + 8_>_5 + 9_>_5
   + 10_>_5 <= 1
 R21: 0_>_5 + 1_>_5 + 2_>_5 + 3_>_5 + 4_>_5 + 6_>_5 + 7_>_5 + 8_>_5 + 9_>_5
   + 10_>_5 >= 1
 R22: 5_>_0 + 5_>_1 + 5_>_2 + 5_>_3 + 5_>_4 + 5_>_6 + 5_>_7 + 5_>_8 + 5_>_9
   + 5_>_10 <= 1
 R23: 5_>_0 + 5_>_1 + 5_>_2 + 5_>_3 + 5_>_4 + 5_>_6 + 5_>_7 + 5_>_8 + 5_>_9
   + 5_>_10 >= 1
 R24: 0_>_6 + 1_>_6 + 2_>_6 + 3_>_6 + 4_>_6 + 5_>_6 + 7_>_6 + 8_>_6 + 9_>_6
   + 10_>_6 <= 1
 R25: 0_>_6 + 1_>_6 + 2_>_6 + 3_>_6 + 4_>_6 + 5_>_6 + 7_>_6 + 8_>_6 + 9_>_6
   + 10_>_6 >= 1
 R26: 6_>_0 + 6_>_1 + 6_>_2 + 6_>_3 + 6_>_4 + 6_>_5 + 6_>_7 + 6_>_8 + 6_>_9
   + 6_>_10 <= 1
 R27: 6_>_0 + 6_>_1 + 6_>_2 + 6_>_3 + 6_>_4 + 6_>_5 + 6_>_7 + 6_>_8 + 6_>_9
   + 6_>_10 >= 1
 R28: 0_>_7 + 1_>_7 + 2_>_7 + 3_>_7 + 4_>_7 + 5_>_7 + 6_>_7 + 8_>_7 + 9_>_7
   + 10_>_7 <= 1
 R29: 0_>_7 + 1_>_7 + 2_>_7 + 3_>_7 + 4_>_7 + 5_>_7 + 6_>_7 + 8_>_7 + 9_>_7
   + 10_>_7 >= 1
 R30: 7_>_0 + 7_>_1 + 7_>_2 + 7_>_3 + 7_>_4 + 7_>_5 + 7_>_6 + 7_>_8 + 7_>_9
   + 7_>_10 <= 1
 R31: 7_>_0 + 7_>_1 + 7_>_2 + 7_>_3 + 7_>_4 + 7_>_5 + 7_>_6 + 7_>_8 + 7_>_9
   + 7_>_10 >= 1
 R32: 0_>_8 + 1_>_8 + 2_>_8 + 3_>_8 + 4_>_8 + 5_>_8 + 6_>_8 + 7_>_8 + 9_>_8
   + 10_>_8 <= 1
 R33: 0_>_8 + 1_>_8 + 2_>_8 + 3_>_8 + 4_>_8 + 5_>_8 + 6_>_8 + 7_>_8 + 9_>_8
   + 10_>_8 >= 1
 R34: 8_>_0 + 8_>_1 + 8_>_2 + 8_>_3 + 8_>_4 + 8_>_5 + 8_>_6 + 8_>_7 + 8_>_9
   + 8_>_10 <= 1
 R35: 8_>_0 + 8_>_1 + 8_>_2 + 8_>_3 + 8_>_4 + 8_>_5 + 8_>_6 + 8_>_7 + 8_>_9
   + 8_>_10 >= 1
 R36: 0_>_9 + 1_>_9 + 2_>_9 + 3_>_9 + 4_>_9 + 5_>_9 + 6_>_9 + 7_>_9 + 8_>_9
   + 10_>_9 <= 1
 R37: 0_>_9 + 1_>_9 + 2_>_9 + 3_>_9 + 4_>_9 + 5_>_9 + 6_>_9 + 7_>_9 + 8_>_9
   + 10_>_9 >= 1
 R38: 9_>_0 + 9_>_1 + 9_>_2 + 9_>_3 + 9_>_4 + 9_>_5 + 9_>_6 + 9_>_7 + 9_>_8
   + 9_>_10 <= 1
 R39: 9_>_0 + 9_>_1 + 9_>_2 + 9_>_3 + 9_>_4 + 9_>_5 + 9_>_6 + 9_>_7 + 9_>_8
   + 9_>_10 >= 1
 R40: 0_>_10 + 1_>_10 + 2_>_10 + 3_>_10 + 4_>_10 + 5_>_10 + 6_>_10 + 7_>_10
   + 8_>_10 + 9_>_10 <= 1
 R41: 0_>_10 + 1_>_10 + 2_>_10 + 3_>_10 + 4_>_10 + 5_>_10 + 6_>_10 + 7_>_10
   + 8_>_10 + 9_>_10 >= 1
 R42: 10_>_0 + 10_>_1 + 10_>_2 + 10_>_3 + 10_>_4 + 10_>_5 + 10_>_6 + 10_>_7
   + 10_>_8 + 10_>_9 <= 1
 R43: 10_>_0 + 10_>_1 + 10_>_2 + 10_>_3 + 10_>_4 + 10_>_5 + 10_>_6 + 10_>_7
   + 10_>_8 + 10_>_9 >= 1
Bounds
Binaries
 0_>_1 0_>_2 0_>_3 0_>_4 0_>_5 0_>_6 0_>_7 0_>_8 0_>_9 0_>_10 1_>_0 1_>_2
 1_>_3 1_>_4 1_>_5 1_>_6 1_>_7 1_>_8 1_>_9 1_>_10 2_>_0 2_>_1 2_>_3 2_>_4
 2_>_5 2_>_6 2_>_7 2_>_8 2_>_9 2_>_10 3_>_0 3_>_1 3_>_2 3_>_4 3_>_5 3_>_6
 3_>_7 3_>_8 3_>_9 3_>_10 4_>_0 4_>_1 4_>_2 4_>_3 4_>_5 4_>_6 4_>_7 4_>_8
 4_>_9 4_>_10 5_>_0 5_>_1 5_>_2 5_>_3 5_>_4 5_>_6 5_>_7 5_>_8 5_>_9 5_>_10
 6_>_0 6_>_1 6_>_2 6_>_3 6_>_4 6_>_5 6_>_7 6_>_8 6_>_9 6_>_10 7_>_0 7_>_1
 7_>_2 7_>_3 7_>_4 7_>_5 7_>_6 7_>_8 7_>_9 7_>_10 8_>_0 8_>_1 8_>_2 8_>_3
 8_>_4 8_>_5 8_>_6 8_>_7 8_>_9 8_>_10 9_>_0 9_>_1 9_>_2 9_>_3 9_>_4 9_>_5
 9_>_6 9_>_7 9_>_8 9_>_10 10_>_0 10_>_1 10_>_2 10_>_3 10_>_4 10_>_5 10_>_6
 10_>_7 10_>_8 10_>_9
End
